100
100
258 5
438 2
253 14
659 21
193 21
30 9
628 23
831 13
868 2
354 8
838 3
485 21
877 12
949 16
222 6
697 4
310 11
757 14
874 15
860 19
338 14
27 15
611 9
104 3
860 10
312 24
389 23
369 15
137 17
357 8
473 3
836 9
890 17
48 14
358 9
182 20
147 10
11 9
768 17
586 4
276 24
379 16
397 22
280 8
416 11
242 13
40 2
373 4
20 22
44 2
30 2
424 1
136 11
284 5
252 21
585 4
822 13
894 20
710 23
454 2
160 20
364 1
771 13
832 17
860 25
870 14
452 18
417 14
79 2
546 7
273 5
561 19
93 4
15 4
979 18
630 15
162 20
41 9
784 24
425 18
98 19
884 1
939 25
192 19
703 12
50 25
218 12
420 10
416 9
815 21
901 21
587 14
492 4
697 3
202 23
270 2
119 5
552 7
156 20
777 9
